(set-info :smt-lib-version 2.6)
(set-logic QF_LRA)
(set-info :source |
Fully parameterized specification and verification of a synchronizer   
circuit modeling metastability at various levels of refinement.     
A paper describing this specification, to be published in Designing     
Correct Circuits (DCC), 2006, is available from the authors.            

Geoffrey Brown, Indiana University <geobrown@cs.indiana.edu>
Lee Pike, Galois Connections, Inc. <leepike@galois.com>

Translated into CVC format by Leonardo de Moura.

This benchmark was automatically translated into SMT-LIB format from
CVC format using CVC Lite

|)
(set-info :category "industrial")
(set-info :status sat)
(declare-fun x_0 () Bool)
(declare-fun x_1 () Bool)
(declare-fun x_2 () Real)
(declare-fun x_3 () Real)
(declare-fun x_4 () Bool)
(declare-fun x_5 () Bool)
(declare-fun x_6 () Real)
(declare-fun x_7 () Real)
(declare-fun x_8 () Bool)
(declare-fun x_9 () Bool)
(declare-fun x_10 () Real)
(declare-fun x_11 () Real)
(declare-fun x_12 () Bool)
(declare-fun x_13 () Bool)
(declare-fun x_14 () Real)
(declare-fun x_15 () Real)
(declare-fun x_16 () Bool)
(declare-fun x_17 () Bool)
(declare-fun x_18 () Real)
(declare-fun x_19 () Real)
(declare-fun x_20 () Real)
(declare-fun x_21 () Real)
(declare-fun x_22 () Real)
(declare-fun x_23 () Real)
(declare-fun x_24 () Real)
(declare-fun x_25 () Real)
(declare-fun x_26 () Real)
(declare-fun x_27 () Real)
(declare-fun x_28 () Real)
(declare-fun x_29 () Real)
(declare-fun x_30 () Real)
(declare-fun x_31 () Real)
(declare-fun x_32 () Real)
(declare-fun x_33 () Real)
(declare-fun x_34 () Real)
(declare-fun x_35 () Real)
(declare-fun x_36 () Real)
(declare-fun x_37 () Real)
(declare-fun x_38 () Real)
(declare-fun x_39 () Real)
(declare-fun x_40 () Real)
(declare-fun x_41 () Real)
(declare-fun x_42 () Real)
(declare-fun x_43 () Real)
(declare-fun x_44 () Real)
(declare-fun x_45 () Real)
(declare-fun x_46 () Real)
(declare-fun x_47 () Real)
(declare-fun x_48 () Real)
(declare-fun x_49 () Real)
(declare-fun x_50 () Real)
(declare-fun x_51 () Real)
(declare-fun x_52 () Real)
(declare-fun x_53 () Real)
(declare-fun x_54 () Bool)
(declare-fun x_55 () Bool)
(declare-fun x_56 () Real)
(declare-fun x_57 () Bool)
(declare-fun x_58 () Bool)
(declare-fun x_59 () Bool)
(declare-fun x_60 () Bool)
(declare-fun x_61 () Bool)
(declare-fun x_62 () Real)
(declare-fun x_63 () Bool)
(declare-fun x_64 () Real)
(declare-fun x_65 () Real)
(declare-fun x_66 () Real)
(declare-fun x_67 () Bool)
(declare-fun x_68 () Real)
(declare-fun x_69 () Bool)
(declare-fun x_70 () Bool)
(declare-fun x_71 () Real)
(declare-fun x_72 () Bool)
(declare-fun x_73 () Real)
(declare-fun x_74 () Real)
(declare-fun x_75 () Real)
(declare-fun x_76 () Bool)
(declare-fun x_77 () Real)
(declare-fun x_78 () Bool)
(declare-fun x_79 () Bool)
(declare-fun x_80 () Real)
(declare-fun x_81 () Bool)
(declare-fun x_82 () Real)
(declare-fun x_83 () Real)
(declare-fun x_84 () Real)
(declare-fun x_85 () Bool)
(declare-fun x_86 () Real)
(declare-fun x_87 () Bool)
(declare-fun x_88 () Bool)
(declare-fun x_89 () Real)
(declare-fun x_90 () Bool)
(declare-fun x_91 () Real)
(declare-fun x_92 () Real)
(declare-fun x_93 () Real)
(declare-fun x_94 () Bool)
(declare-fun x_95 () Real)
(declare-fun x_96 () Real)
(declare-fun x_97 () Bool)
(declare-fun x_98 () Bool)
(declare-fun x_99 () Bool)
(declare-fun x_100 () Bool)
(declare-fun x_101 () Real)
(declare-fun x_102 () Bool)
(declare-fun x_103 () Real)
(declare-fun x_104 () Real)
(declare-fun x_105 () Real)
(declare-fun x_106 () Real)
(assert (let ((?v_10 (ite (<= x_20 x_21) x_20 x_21)) (?v_8 (ite (<= x_29 x_30) x_29 x_30)) (?v_6 (ite (<= x_34 x_35) x_34 x_35)) (?v_4 (ite (<= x_39 x_40) x_39 x_40)) (?v_2 (ite (<= x_44 x_45) x_44 x_45)) (?v_0 (ite (<= x_49 x_50) x_49 x_50)) (?v_73 (= x_31 x_25)) (?v_75 (= x_21 x_30)) (?v_77 (= x_33 x_27)) (?v_71 (= x_20 x_29))) (let ((?v_78 (not ?v_71)) (?v_81 (= x_32 x_26)) (?v_68 (= x_54 x_55)) (?v_69 (= x_7 x_3)) (?v_72 (ite (<= x_21 x_20) x_21 x_20)) (?v_59 (= x_36 x_31)) (?v_61 (= x_30 x_35)) (?v_63 (= x_38 x_33)) (?v_57 (= x_29 x_34))) (let ((?v_64 (not ?v_57)) (?v_67 (= x_37 x_32)) (?v_54 (= x_67 x_54)) (?v_55 (= x_11 x_7)) (?v_58 (ite (<= x_30 x_29) x_30 x_29)) (?v_45 (= x_41 x_36)) (?v_47 (= x_35 x_40)) (?v_49 (= x_43 x_38)) (?v_43 (= x_34 x_39))) (let ((?v_50 (not ?v_43)) (?v_53 (= x_42 x_37)) (?v_40 (= x_76 x_67)) (?v_41 (= x_15 x_11)) (?v_44 (ite (<= x_35 x_34) x_35 x_34)) (?v_31 (= x_46 x_41)) (?v_33 (= x_40 x_45)) (?v_35 (= x_48 x_43)) (?v_29 (= x_39 x_44))) (let ((?v_36 (not ?v_29)) (?v_39 (= x_47 x_42)) (?v_26 (= x_85 x_76)) (?v_27 (= x_19 x_15)) (?v_30 (ite (<= x_40 x_39) x_40 x_39)) (?v_17 (= x_51 x_46)) (?v_19 (= x_45 x_50)) (?v_21 (= x_53 x_48)) (?v_15 (= x_44 x_49))) (let ((?v_22 (not ?v_15)) (?v_25 (= x_52 x_47)) (?v_12 (= x_94 x_85)) (?v_13 (= x_95 x_19)) (?v_16 (ite (<= x_45 x_44) x_45 x_44)) (?v_14 (= x_98 x_17)) (?v_24 (= x_19 x_95)) (?v_28 (= x_17 x_13)) (?v_38 (= x_15 x_19)) (?v_42 (= x_13 x_9)) (?v_52 (= x_11 x_15)) (?v_56 (= x_9 x_5)) (?v_66 (= x_7 x_11)) (?v_70 (= x_5 x_1)) (?v_80 (= x_3 x_7)) (?v_18 (<= x_48 ?v_2)) (?v_32 (<= x_43 ?v_4)) (?v_46 (<= x_38 ?v_6)) (?v_60 (<= x_33 ?v_8)) (?v_74 (<= x_27 ?v_10)) (?v_1 (+ ?v_0 x_24)) (?v_20 (+ ?v_2 x_28)) (?v_3 (+ ?v_2 x_24)) (?v_34 (+ ?v_4 x_28)) (?v_5 (+ ?v_4 x_24)) (?v_48 (+ ?v_6 x_28)) (?v_7 (+ ?v_6 x_24)) (?v_62 (+ ?v_8 x_28)) (?v_9 (+ ?v_8 x_24)) (?v_76 (+ ?v_10 x_28)) (?v_11 (+ ?v_10 x_24))) (let ((?v_23 (+ ?v_16 x_24)) (?v_37 (+ ?v_30 x_24)) (?v_51 (+ ?v_44 x_24)) (?v_65 (+ ?v_58 x_24)) (?v_79 (+ ?v_72 x_24))) (and (and (and (and (and (and (and (and (and (and (and (and (and (and (and (and (and (and (and (and (and (and (and (and (and (and (and (and (and (and (and (and (and (and (and (and (and (and (and (and (and (and (and (and (and (and (and (and (and (and (and (and (and (and (and (and (and (and (and (and (and (and (and (and (and (and (and (and (and (and (and (and (and (and (and (and (and (and (and (and (and (and (> x_22 0) (> x_23 0)) (>= x_24 0)) (< x_24 x_22)) (< x_24 x_23)) (>= x_28 0)) (< x_28 x_22)) (< x_28 x_23)) (or (= x_16 x_17) (= x_18 x_19))) (or (= x_12 x_13) (= x_14 x_15))) (or (= x_8 x_9) (= x_10 x_11))) (or (= x_4 x_5) (= x_6 x_7))) (or (= x_0 x_1) (= x_2 x_3))) (or (<= x_51 ?v_0) (<= (- (+ x_51 x_23) x_24) x_50))) (or (<= x_52 ?v_0) (<= (- (+ x_52 x_23) x_24) x_50))) (or (<= x_53 ?v_0) (<= (- (+ x_53 x_22) x_28) x_49))) (<= x_53 (+ ?v_0 x_28))) (<= x_52 ?v_1)) (<= x_51 ?v_1)) (<= ?v_0 x_49)) (<= ?v_0 x_50)) (or (<= x_46 ?v_2) (<= (- (+ x_46 x_23) x_24) x_45))) (or (<= x_47 ?v_2) (<= (- (+ x_47 x_23) x_24) x_45))) (or ?v_18 (<= (- (+ x_48 x_22) x_28) x_44))) (<= x_48 ?v_20)) (<= x_47 ?v_3)) (<= x_46 ?v_3)) (<= ?v_2 x_44)) (<= ?v_2 x_45)) (or (<= x_41 ?v_4) (<= (- (+ x_41 x_23) x_24) x_40))) (or (<= x_42 ?v_4) (<= (- (+ x_42 x_23) x_24) x_40))) (or ?v_32 (<= (- (+ x_43 x_22) x_28) x_39))) (<= x_43 ?v_34)) (<= x_42 ?v_5)) (<= x_41 ?v_5)) (<= ?v_4 x_39)) (<= ?v_4 x_40)) (or (<= x_36 ?v_6) (<= (- (+ x_36 x_23) x_24) x_35))) (or (<= x_37 ?v_6) (<= (- (+ x_37 x_23) x_24) x_35))) (or ?v_46 (<= (- (+ x_38 x_22) x_28) x_34))) (<= x_38 ?v_48)) (<= x_37 ?v_7)) (<= x_36 ?v_7)) (<= ?v_6 x_34)) (<= ?v_6 x_35)) (or (<= x_31 ?v_8) (<= (- (+ x_31 x_23) x_24) x_30))) (or (<= x_32 ?v_8) (<= (- (+ x_32 x_23) x_24) x_30))) (or ?v_60 (<= (- (+ x_33 x_22) x_28) x_29))) (<= x_33 ?v_62)) (<= x_32 ?v_9)) (<= x_31 ?v_9)) (<= ?v_8 x_29)) (<= ?v_8 x_30)) (or (<= x_25 ?v_10) (<= (- (+ x_25 x_23) x_24) x_21))) (or (<= x_26 ?v_10) (<= (- (+ x_26 x_23) x_24) x_21))) (or ?v_74 (<= (- (+ x_27 x_22) x_28) x_20))) (<= x_27 ?v_76)) (<= x_26 ?v_11)) (<= x_25 ?v_11)) (<= ?v_10 x_20)) (<= ?v_10 x_21)) (or (and (and (and (and (and (and (and (and (and (= x_96 0) (= x_97 x_90)) (= ?v_2 x_44)) (<= (+ ?v_2 x_22) x_49)) (or ?v_14 (= x_98 x_16))) (= x_99 x_87)) (= x_100 x_88)) (= x_50 x_45)) ?v_12) ?v_13) (and (and (and (and (and (and (and (and (and (= x_96 1) (= x_100 x_87)) (= ?v_2 x_45)) (<= (+ ?v_2 x_23) x_50)) (or (and (and (= x_101 0) ?v_12) ?v_13) (and (and (= x_101 1) (= x_85 x_88)) (= x_94 (not x_85))))) (= x_102 x_90)) (= x_97 x_16)) (= x_103 x_18)) (= x_49 x_44)) ?v_14))) (or (or (and (and (and (= x_104 0) ?v_22) (or (not (<= x_46 ?v_16)) (= x_102 x_85))) ?v_17) (and (and (and (= x_104 1) ?v_15) (xor x_85 x_94)) (= x_51 ?v_23))) (and (and (and (= x_104 2) ?v_15) (= x_85 x_94)) ?v_17))) (or (or (and (and (and (= x_105 0) (not ?v_19)) (or (not ?v_18) (= x_99 x_17))) ?v_21) (and (and (and (= x_105 1) ?v_19) (xor x_17 x_98)) (= x_53 ?v_20))) (and (and (and (= x_105 2) ?v_19) (= x_17 x_98)) ?v_21))) (or (or (and (and (and (= x_106 0) ?v_22) (or (not (<= x_47 ?v_16)) (= x_103 x_19))) ?v_25) (and (and (and (= x_106 1) ?v_15) (not ?v_24)) (= x_52 ?v_23))) (and (and (and (= x_106 2) ?v_15) ?v_24) ?v_25))) (or (and (and (and (and (and (and (and (and (and (= x_86 0) (= x_16 x_81)) (= ?v_4 x_39)) (<= (+ ?v_4 x_22) x_44)) (or ?v_28 (= x_17 x_12))) (= x_87 x_78)) (= x_88 x_79)) (= x_45 x_40)) ?v_26) ?v_27) (and (and (and (and (and (and (and (and (and (= x_86 1) (= x_88 x_78)) (= ?v_4 x_40)) (<= (+ ?v_4 x_23) x_45)) (or (and (and (= x_89 0) ?v_26) ?v_27) (and (and (= x_89 1) (= x_76 x_79)) (= x_85 (not x_76))))) (= x_90 x_81)) (= x_16 x_12)) (= x_18 x_14)) (= x_44 x_39)) ?v_28))) (or (or (and (and (and (= x_91 0) ?v_36) (or (not (<= x_41 ?v_30)) (= x_90 x_76))) ?v_31) (and (and (and (= x_91 1) ?v_29) (xor x_76 x_85)) (= x_46 ?v_37))) (and (and (and (= x_91 2) ?v_29) (= x_76 x_85)) ?v_31))) (or (or (and (and (and (= x_92 0) (not ?v_33)) (or (not ?v_32) (= x_87 x_13))) ?v_35) (and (and (and (= x_92 1) ?v_33) (xor x_13 x_17)) (= x_48 ?v_34))) (and (and (and (= x_92 2) ?v_33) (= x_13 x_17)) ?v_35))) (or (or (and (and (and (= x_93 0) ?v_36) (or (not (<= x_42 ?v_30)) (= x_18 x_15))) ?v_39) (and (and (and (= x_93 1) ?v_29) (not ?v_38)) (= x_47 ?v_37))) (and (and (and (= x_93 2) ?v_29) ?v_38) ?v_39))) (or (and (and (and (and (and (and (and (and (and (= x_77 0) (= x_12 x_72)) (= ?v_6 x_34)) (<= (+ ?v_6 x_22) x_39)) (or ?v_42 (= x_13 x_8))) (= x_78 x_69)) (= x_79 x_70)) (= x_40 x_35)) ?v_40) ?v_41) (and (and (and (and (and (and (and (and (and (= x_77 1) (= x_79 x_69)) (= ?v_6 x_35)) (<= (+ ?v_6 x_23) x_40)) (or (and (and (= x_80 0) ?v_40) ?v_41) (and (and (= x_80 1) (= x_67 x_70)) (= x_76 (not x_67))))) (= x_81 x_72)) (= x_12 x_8)) (= x_14 x_10)) (= x_39 x_34)) ?v_42))) (or (or (and (and (and (= x_82 0) ?v_50) (or (not (<= x_36 ?v_44)) (= x_81 x_67))) ?v_45) (and (and (and (= x_82 1) ?v_43) (xor x_67 x_76)) (= x_41 ?v_51))) (and (and (and (= x_82 2) ?v_43) (= x_67 x_76)) ?v_45))) (or (or (and (and (and (= x_83 0) (not ?v_47)) (or (not ?v_46) (= x_78 x_9))) ?v_49) (and (and (and (= x_83 1) ?v_47) (xor x_9 x_13)) (= x_43 ?v_48))) (and (and (and (= x_83 2) ?v_47) (= x_9 x_13)) ?v_49))) (or (or (and (and (and (= x_84 0) ?v_50) (or (not (<= x_37 ?v_44)) (= x_14 x_11))) ?v_53) (and (and (and (= x_84 1) ?v_43) (not ?v_52)) (= x_42 ?v_51))) (and (and (and (= x_84 2) ?v_43) ?v_52) ?v_53))) (or (and (and (and (and (and (and (and (and (and (= x_68 0) (= x_8 x_63)) (= ?v_8 x_29)) (<= (+ ?v_8 x_22) x_34)) (or ?v_56 (= x_9 x_4))) (= x_69 x_58)) (= x_70 x_60)) (= x_35 x_30)) ?v_54) ?v_55) (and (and (and (and (and (and (and (and (and (= x_68 1) (= x_70 x_58)) (= ?v_8 x_30)) (<= (+ ?v_8 x_23) x_35)) (or (and (and (= x_71 0) ?v_54) ?v_55) (and (and (= x_71 1) (= x_54 x_60)) (= x_67 (not x_54))))) (= x_72 x_63)) (= x_8 x_4)) (= x_10 x_6)) (= x_34 x_29)) ?v_56))) (or (or (and (and (and (= x_73 0) ?v_64) (or (not (<= x_31 ?v_58)) (= x_72 x_54))) ?v_59) (and (and (and (= x_73 1) ?v_57) (xor x_54 x_67)) (= x_36 ?v_65))) (and (and (and (= x_73 2) ?v_57) (= x_54 x_67)) ?v_59))) (or (or (and (and (and (= x_74 0) (not ?v_61)) (or (not ?v_60) (= x_69 x_5))) ?v_63) (and (and (and (= x_74 1) ?v_61) (xor x_5 x_9)) (= x_38 ?v_62))) (and (and (and (= x_74 2) ?v_61) (= x_5 x_9)) ?v_63))) (or (or (and (and (and (= x_75 0) ?v_64) (or (not (<= x_32 ?v_58)) (= x_10 x_7))) ?v_67) (and (and (and (= x_75 1) ?v_57) (not ?v_66)) (= x_37 ?v_65))) (and (and (and (= x_75 2) ?v_57) ?v_66) ?v_67))) (or (and (and (and (and (and (and (and (and (and (= x_56 0) (= x_4 x_57)) (= ?v_10 x_20)) (<= (+ ?v_10 x_22) x_29)) (or ?v_70 (= x_5 x_0))) (= x_58 x_59)) (= x_60 x_61)) (= x_30 x_21)) ?v_68) ?v_69) (and (and (and (and (and (and (and (and (and (= x_56 1) (= x_60 x_59)) (= ?v_10 x_21)) (<= (+ ?v_10 x_23) x_30)) (or (and (and (= x_62 0) ?v_68) ?v_69) (and (and (= x_62 1) (= x_55 x_61)) (= x_54 (not x_55))))) (= x_63 x_57)) (= x_4 x_0)) (= x_6 x_2)) (= x_29 x_20)) ?v_70))) (or (or (and (and (and (= x_64 0) ?v_78) (or (not (<= x_25 ?v_72)) (= x_63 x_55))) ?v_73) (and (and (and (= x_64 1) ?v_71) (xor x_55 x_54)) (= x_31 ?v_79))) (and (and (and (= x_64 2) ?v_71) (= x_55 x_54)) ?v_73))) (or (or (and (and (and (= x_65 0) (not ?v_75)) (or (not ?v_74) (= x_58 x_1))) ?v_77) (and (and (and (= x_65 1) ?v_75) (xor x_1 x_5)) (= x_33 ?v_76))) (and (and (and (= x_65 2) ?v_75) (= x_1 x_5)) ?v_77))) (or (or (and (and (and (= x_66 0) ?v_78) (or (not (<= x_26 ?v_72)) (= x_6 x_3))) ?v_81) (and (and (and (= x_66 1) ?v_71) (not ?v_80)) (= x_32 ?v_79))) (and (and (and (= x_66 2) ?v_71) ?v_80) ?v_81))) (xor x_97 x_98)) (not (= x_103 x_95)))))))))))
(check-sat)
(exit)
